(declare-const c_0 Real)
(declare-const c_1 Real)
(declare-const c_2 Real)
(declare-const c_3 Real)
(declare-const c_4 Real)
(declare-const c_5 Real)
(declare-const c_6 Real)
(declare-const c_7 Real)
(declare-const c_8 Real)
(declare-const c_9 Real)
(declare-const c_10 Real)
(declare-const c_11 Real)
(declare-const c_12 Real)
(declare-const c_13 Real)
(declare-const c_14 Real)
(declare-const c_15 Real)
(declare-const c_16 Real)
(declare-const c_17 Real)
(declare-const c_18 Real)
(declare-const c_19 Real)
(declare-const c_20 Real)
(declare-const c_21 Real)
(declare-const c_22 Real)
(declare-const c_23 Real)
(declare-const c_24 Real)
(declare-const c_25 Real)
(declare-const c_26 Real)
(declare-const c_27 Real)
(declare-const c_28 Real)
(declare-const c_29 Real)
(declare-const s_0 Real)
(declare-const s_1 Real)
(declare-const s_2 Real)
(declare-const s_3 Real)
(declare-const s_4 Real)
(declare-const s_5 Real)
(declare-const s_6 Real)
(declare-const s_7 Real)
(declare-const s_8 Real)
(declare-const s_9 Real)
(declare-const s_10 Real)
(declare-const s_11 Real)
(declare-const s_12 Real)
(declare-const s_13 Real)
(declare-const s_14 Real)
(declare-const s_15 Real)
(declare-const s_16 Real)
(declare-const s_17 Real)
(declare-const s_18 Real)
(declare-const s_19 Real)
(declare-const s_20 Real)
(declare-const s_21 Real)
(declare-const s_22 Real)
(declare-const s_23 Real)
(declare-const s_24 Real)
(declare-const s_25 Real)
(declare-const s_26 Real)
(declare-const s_27 Real)
(declare-const s_28 Real)
(declare-const s_29 Real)
(assert (forall ((c Real) (x Real) (y Real) ) (=> (and (>= (+ (* 1024 1) (* 1 c ) ) 0) (>= (+ (* 1023 1) (* (- 1) c ) ) 0) (>= (+ (* 1024 1) (* 1 x ) ) 0) (>= (+ (* 1023 1) (* (- 1) x ) ) 0) (>= (+ (* 1024 1) (* 1 y ) ) 0) (>= (+ (* 1023 1) (* (- 1) y ) ) 0) ) (>= (+ (* 1 c s_1 ) (* 1 c s_2 x ) (* 1 c s_3 y ) (* 1 c c s_4 ) (* 1 s_0 ) (* 1 s_5 x ) (* 1 s_6 x y ) (* 1 s_7 x x ) (* 1 s_8 y ) (* 1 s_9 y y ) ) 0) )))
(assert (forall ((c Real) (x Real) (y Real) ) (=> (and (>= (+ (* 1024 1) (* 1 c ) ) 0) (>= (+ (* 1023 1) (* (- 1) c ) ) 0) (>= (+ (* 1024 1) (* 1 x ) ) 0) (>= (+ (* 1023 1) (* (- 1) x ) ) 0) (>= (+ (* 1024 1) (* 1 y ) ) 0) (>= (+ (* 1023 1) (* (- 1) y ) ) 0) ) (>= (+ (* 1 c c_1 ) (* 1 c c_2 x ) (* 1 c c_3 y ) (* 1 c c c_4 ) (* 1 c_0 ) (* 1 c_5 x ) (* 1 c_6 x y ) (* 1 c_7 x x ) (* 1 c_8 y ) (* 1 c_9 y y ) ) 0) )))
(assert (forall ((c Real) (x Real) (y Real) ) (=> (and (>= (+ (* 1023 1) (* (- 1) y ) ) 0) (>= (+ (* 1024 1) (* 1 y ) ) 0) (>= (+ (* 1023 1) (* (- 1) x ) ) 0) (>= (+ (* 1024 1) (* 1 x ) ) 0) (>= (+ (* 1023 1) (* (- 1) c ) ) 0) (>= (+ (* 1024 1) (* 1 c ) ) 0) (>= (+ (* 1 c s_1 ) (* 1 c s_2 x ) (* 1 c s_3 y ) (* 1 c c s_4 ) (* 1 s_0 ) (* 1 s_5 x ) (* 1 s_6 x y ) (* 1 s_7 x x ) (* 1 s_8 y ) (* 1 s_9 y y ) ) 0) ) (>= (+ (* 1 s_10 ) (* 1 s_15 x ) (* 1 s_16 x y ) (* 1 s_17 x x ) (* 1 s_18 y ) (* 1 s_19 y y ) ) 0) )))
(assert (forall ((c Real) (x Real) (y Real) ) (=> (and (>= (+ (* 1023 1) (* (- 1) y ) ) 0) (>= (+ (* 1024 1) (* 1 y ) ) 0) (>= (+ (* 1023 1) (* (- 1) x ) ) 0) (>= (+ (* 1024 1) (* 1 x ) ) 0) (>= (+ (* 1023 1) (* (- 1) c ) ) 0) (>= (+ (* 1024 1) (* 1 c ) ) 0) (>= (+ (* 1 c s_1 ) (* 1 c s_2 x ) (* 1 c s_3 y ) (* 1 c c s_4 ) (* 1 s_0 ) (* 1 s_5 x ) (* 1 s_6 x y ) (* 1 s_7 x x ) (* 1 s_8 y ) (* 1 s_9 y y ) ) 0) ) (>= (+ (* 1 c_10 ) (* 1 c_15 x ) (* 1 c_16 x y ) (* 1 c_17 x x ) (* 1 c_18 y ) (* 1 c_19 y y ) ) 0) )))
(assert (forall ((c Real) (x Real) (y Real) ) (=> (and (>= (+ (* 1023 1) (* (- 1) y ) ) 0) (>= (+ (* 1024 1) (* 1 y ) ) 0) (>= (+ (* 1023 1) (* (- 1) x ) ) 0) (>= (+ (* 1024 1) (* 1 x ) ) 0) (>= (+ (* 1023 1) (* (- 1) c ) ) 0) (>= (+ (* 1024 1) (* 1 c ) ) 0) (>= (+ (* 1 c s_1 ) (* 1 c s_2 x ) (* 1 c s_3 y ) (* 1 c c s_4 ) (* 1 s_0 ) (* 1 s_5 x ) (* 1 s_6 x y ) (* 1 s_7 x x ) (* 1 s_8 y ) (* 1 s_9 y y ) ) 0) ) (>= (+ (* (- 1) 1) (* 1 c c_1 ) (* 1 c c_2 x ) (* 1 c c_3 y ) (* 1 c c c_4 ) (* 1 c_0 ) (* (- 1) c_10 ) (* (- 1) c_15 x ) (* (- 1) c_16 x y ) (* (- 1) c_17 x x ) (* (- 1) c_18 y ) (* (- 1) c_19 y y ) (* 1 c_5 x ) (* 1 c_6 x y ) (* 1 c_7 x x ) (* 1 c_8 y ) (* 1 c_9 y y ) ) 0) )))
(assert (forall ((c Real) (x Real) (y Real) ) (=> (and (>= (+ (* (- 1) 1) (* 1 x ) (* (- 1) y ) ) 0) (>= (+ (* 1024 1) (* (- 2) c ) (* 1 y ) ) 0) (>= (+ (* 1024 1) (* (- 2) c ) (* 1 x ) ) 0) (>= (+ (* 1023 1) (* 1 c ) (* (- 1) x ) ) 0) (>= (+ (* 1023 1) (* 1 c ) (* (- 1) y ) ) 0) (>= (* 1 c ) 0) (>= (+ (* 1 c s_11 ) (* 1 c s_12 x ) (* 1 c s_13 y ) (* 1 c c s_14 ) (* 1 s_10 ) (* 1 s_15 x ) (* 1 s_16 x y ) (* 1 s_17 x x ) (* 1 s_18 y ) (* 1 s_19 y y ) ) 0) ) (>= (+ (* 1 c s_11 ) (* 1 c s_12 ) (* 1 c s_12 x ) (* 2 c s_13 ) (* 1 c s_13 y ) (* 2 c s_14 ) (* 1 c c s_14 ) (* 1 s_10 ) (* 1 s_11 ) (* 1 s_12 ) (* 1 s_12 x ) (* 2 s_13 ) (* 1 s_13 y ) (* 1 s_14 ) (* 1 s_15 ) (* 1 s_15 x ) (* 2 s_16 ) (* 2 s_16 x ) (* 1 s_16 x y ) (* 1 s_16 y ) (* 1 s_17 ) (* 2 s_17 x ) (* 1 s_17 x x ) (* 2 s_18 ) (* 1 s_18 y ) (* 4 s_19 ) (* 4 s_19 y ) (* 1 s_19 y y ) ) 0) )))
(assert (forall ((c Real) (x Real) (y Real) ) (=> (and (>= (+ (* (- 1) 1) (* 1 x ) (* (- 1) y ) ) 0) (>= (+ (* 1024 1) (* (- 2) c ) (* 1 y ) ) 0) (>= (+ (* 1024 1) (* (- 2) c ) (* 1 x ) ) 0) (>= (+ (* 1023 1) (* 1 c ) (* (- 1) x ) ) 0) (>= (+ (* 1023 1) (* 1 c ) (* (- 1) y ) ) 0) (>= (* 1 c ) 0) (>= (+ (* 1 c s_11 ) (* 1 c s_12 x ) (* 1 c s_13 y ) (* 1 c c s_14 ) (* 1 s_10 ) (* 1 s_15 x ) (* 1 s_16 x y ) (* 1 s_17 x x ) (* 1 s_18 y ) (* 1 s_19 y y ) ) 0) ) (>= (+ (* 1 c c_11 ) (* 1 c c_12 ) (* 1 c c_12 x ) (* 2 c c_13 ) (* 1 c c_13 y ) (* 2 c c_14 ) (* 1 c c c_14 ) (* 1 c_10 ) (* 1 c_11 ) (* 1 c_12 ) (* 1 c_12 x ) (* 2 c_13 ) (* 1 c_13 y ) (* 1 c_14 ) (* 1 c_15 ) (* 1 c_15 x ) (* 2 c_16 ) (* 2 c_16 x ) (* 1 c_16 x y ) (* 1 c_16 y ) (* 1 c_17 ) (* 2 c_17 x ) (* 1 c_17 x x ) (* 2 c_18 ) (* 1 c_18 y ) (* 4 c_19 ) (* 4 c_19 y ) (* 1 c_19 y y ) ) 0) )))
(assert (forall ((c Real) (x Real) (y Real) ) (=> (and (>= (+ (* (- 1) 1) (* 1 x ) (* (- 1) y ) ) 0) (>= (+ (* 1024 1) (* (- 2) c ) (* 1 y ) ) 0) (>= (+ (* 1024 1) (* (- 2) c ) (* 1 x ) ) 0) (>= (+ (* 1023 1) (* 1 c ) (* (- 1) x ) ) 0) (>= (+ (* 1023 1) (* 1 c ) (* (- 1) y ) ) 0) (>= (* 1 c ) 0) (>= (+ (* 1 c s_11 ) (* 1 c s_12 x ) (* 1 c s_13 y ) (* 1 c c s_14 ) (* 1 s_10 ) (* 1 s_15 x ) (* 1 s_16 x y ) (* 1 s_17 x x ) (* 1 s_18 y ) (* 1 s_19 y y ) ) 0) ) (>= (+ (* (- 1) 1) (* (- 1) c c_12 ) (* (- 2) c c_13 ) (* (- 2) c c_14 ) (* (- 1) c_11 ) (* (- 1) c_12 ) (* (- 1) c_12 x ) (* (- 2) c_13 ) (* (- 1) c_13 y ) (* (- 1) c_14 ) (* (- 1) c_15 ) (* (- 2) c_16 ) (* (- 2) c_16 x ) (* (- 1) c_16 y ) (* (- 1) c_17 ) (* (- 2) c_17 x ) (* (- 2) c_18 ) (* (- 4) c_19 ) (* (- 4) c_19 y ) ) 0) )))
(assert (forall ((c Real) (x Real) (y Real) ) (=> (and (>= (+ (* (- 1) x ) (* 1 y ) ) 0) (>= (+ (* 1024 1) (* (- 2) c ) (* 1 y ) ) 0) (>= (+ (* 1024 1) (* (- 2) c ) (* 1 x ) ) 0) (>= (+ (* 1023 1) (* 1 c ) (* (- 1) x ) ) 0) (>= (+ (* 1023 1) (* 1 c ) (* (- 1) y ) ) 0) (>= (* 1 c ) 0) (>= (+ (* 1 c s_11 ) (* 1 c s_12 x ) (* 1 c s_13 y ) (* 1 c c s_14 ) (* 1 s_10 ) (* 1 s_15 x ) (* 1 s_16 x y ) (* 1 s_17 x x ) (* 1 s_18 y ) (* 1 s_19 y y ) ) 0) ) (>= (+ (* 1 c s_21 ) (* 1 c s_22 x ) (* 1 c s_23 y ) (* 1 c c s_24 ) (* 1 s_20 ) (* 1 s_25 x ) (* 1 s_26 x y ) (* 1 s_27 x x ) (* 1 s_28 y ) (* 1 s_29 y y ) ) 0) )))
(assert (forall ((c Real) (x Real) (y Real) ) (=> (and (>= (+ (* (- 1) x ) (* 1 y ) ) 0) (>= (+ (* 1024 1) (* (- 2) c ) (* 1 y ) ) 0) (>= (+ (* 1024 1) (* (- 2) c ) (* 1 x ) ) 0) (>= (+ (* 1023 1) (* 1 c ) (* (- 1) x ) ) 0) (>= (+ (* 1023 1) (* 1 c ) (* (- 1) y ) ) 0) (>= (* 1 c ) 0) (>= (+ (* 1 c s_11 ) (* 1 c s_12 x ) (* 1 c s_13 y ) (* 1 c c s_14 ) (* 1 s_10 ) (* 1 s_15 x ) (* 1 s_16 x y ) (* 1 s_17 x x ) (* 1 s_18 y ) (* 1 s_19 y y ) ) 0) ) (>= (+ (* 1 c c_21 ) (* 1 c c_22 x ) (* 1 c c_23 y ) (* 1 c c c_24 ) (* 1 c_20 ) (* 1 c_25 x ) (* 1 c_26 x y ) (* 1 c_27 x x ) (* 1 c_28 y ) (* 1 c_29 y y ) ) 0) )))

(check-sat)
(get-model)
